
List of user-set options:

                                    Name   Value                used
                           linear_solver = mumps                 yes
                  ma57_automatic_scaling = yes                    no
                             mu_strategy = adaptive              yes
                      nlp_scaling_method = none                  yes
                             output_file = Gait_SingleStanceIPOPTinfo.txt  yes
                      print_user_options = yes                   yes
                                     tol = 0.01                  yes
This is Ipopt version 3.11.0, running with linear solver mumps.

Number of nonzeros in equality constraint Jacobian...:     3926
Number of nonzeros in inequality constraint Jacobian.:      241
Number of nonzeros in Lagrangian Hessian.............:     1083

Total number of variables............................:      246
                     variables with only lower bounds:        0
                variables with lower and upper bounds:      246
                     variables with only upper bounds:        0
Total number of equality constraints.................:      165
Total number of inequality constraints...............:       81
        inequality constraints with only lower bounds:        0
   inequality constraints with lower and upper bounds:       81
        inequality constraints with only upper bounds:        0

iter    objective    inf_pr   inf_du lg(mu)  ||d||  lg(rg) alpha_du alpha_pr  ls
   0 5.0000000e+000 5.00e-001 0.00e+000   0.0 0.00e+000    -  0.00e+000 0.00e+000   0
   1 1.4041168e+000 1.38e-001 7.85e-001  -6.3 6.88e-001    -  4.17e-001 7.19e-001f  1
   2 1.3648788e+000 1.34e-001 3.29e+001  -1.7 1.50e-001   2.0 9.46e-001 3.31e-002h  1
   3 6.3681642e-001 3.77e-002 2.39e+001  -2.3 2.62e-001   1.5 1.00e+000 8.25e-001h  1
   4 1.0410374e+000 1.08e-003 1.88e+001  -1.1 2.11e-001   1.9 1.00e+000 1.00e+000f  1
   5 9.7584620e-001 5.68e-005 8.24e+000  -1.8 3.48e-002   2.4 1.00e+000 1.00e+000h  1
   6 8.0107550e-001 1.76e-004 3.36e+000  -3.2 1.77e-002   1.9 1.00e+000 1.00e+000f  1
   7 2.4131497e-001 7.94e-001 4.71e+000  -4.2 5.60e-002   1.4 1.00e+000 1.00e+000f  1
   8 2.4130507e-003 6.35e-002 1.30e+001  -2.3 9.52e-001   1.8 1.00e+000 1.87e-001h  1
   9 2.1358776e-001 3.58e-002 2.68e+001  -1.8 1.92e-001   2.3 1.00e+000 5.00e-001h  2
iter    objective    inf_pr   inf_du lg(mu)  ||d||  lg(rg) alpha_du alpha_pr  ls
  10 5.8530416e-001 3.57e-003 2.03e+001  -1.2 4.52e-002   2.7 6.91e-001 1.00e+000H  1
  11 4.6376509e-001 7.92e-001 1.34e+002  -1.4 1.01e-001   3.1 9.99e-001 1.00e+000h  1
  12 4.0787207e-001 1.48e-002 7.27e+002  -1.5 9.47e-001   3.6 2.62e-001 2.46e-001h  1
  13 4.8769240e-001 7.67e-001 1.46e+004  -1.5 2.45e-001   4.0 1.00e+000 1.00e+000f  1
  14 4.9828100e-001 7.60e-001 8.74e+003  -1.5 9.90e-001   3.5 3.34e-001 2.47e-001h  1
  15 4.9821243e-001 7.59e-001 8.71e+003  -1.5 6.47e-001   3.0 1.00e+000 3.78e-003h  1
  16 4.7049506e-001 4.57e-003 2.92e+004  -1.5 8.10e-002   3.4 1.00e+000 1.40e-001h  1
  17 2.2705880e-001 5.78e-002 1.56e+004  -1.5 5.82e-002   3.9 1.00e+000 1.00e+000H  1
  18 1.1466464e-001 5.29e-002 4.46e+005  -1.5 2.26e+001   4.3 9.69e-004 5.30e-003f  2
  19 1.1256661e-001 5.27e-002 2.16e+007  -1.3 5.55e-001   5.6 1.00e+000 2.31e-003h  1
iter    objective    inf_pr   inf_du lg(mu)  ||d||  lg(rg) alpha_du alpha_pr  ls
  20 1.1255671e-003 7.99e-001 1.39e+007  -1.9 4.85e-001   6.1 1.00e+000 1.80e-001h  1
  21 1.1156671e-005 7.99e-001 8.37e+006   0.1 2.15e+001   5.6 3.79e-003 7.91e-005h  1
  22 1.2566712e-008 7.99e-001 2.28e+006   0.3 1.94e+001   6.0 1.22e-002 2.26e-004h  1
  23 1.2717012e-008 7.99e-001 3.25e+007  -7.4 1.78e+001   5.5 9.45e-002 2.94e-004H  1
  24 1.0498458e-005 7.71e-001 5.40e+007   0.6 1.79e+001   6.0 8.23e-003 3.18e-002f  1
  25 5.2947891e-004 9.29e-001 3.90e+009  -1.3 2.49e+001   7.3 1.12e-004 1.62e-002f  2
  26 2.9156691e-002 8.66e-001 6.92e+010  -1.3 6.12e-001   9.5 1.85e-006 4.60e-001f  1
  27 1.0127769e+000 3.54e-001 2.30e+009  -1.3 2.64e-001   9.9 2.85e-002 1.00e+000h  1
  28 1.7128906e+000 1.67e-001 2.50e+010  -1.3 7.00e-002  11.3 5.85e-001 1.00e+000h  1
  29 2.3312426e+000 6.15e-002 5.54e+010  -1.3 6.18e-002  11.7 7.39e-001 1.00e+000h  1
iter    objective    inf_pr   inf_du lg(mu)  ||d||  lg(rg) alpha_du alpha_pr  ls
  30 2.3756688e+000 6.04e-002 2.75e+010  -1.3 6.93e-002  11.2 9.93e-001 5.00e-001h  2
  31 2.6193013e+000 1.88e-002 1.63e+011  -1.3 2.44e-002  12.5 1.00e+000 1.00e+000h  1
  32 2.7336878e+000 3.96e-005 1.34e+010  -1.3 1.14e-002  12.1 1.00e+000 1.00e+000h  1
  33 2.7339438e+000 3.07e-010 1.00e+007  -3.2 2.56e-005  11.6 1.00e+000 1.00e+000h  1
  34 2.7339438e+000 2.26e-016 1.40e+001  -5.0 1.08e-010  11.1 1.00e+000 1.00e+000h  1
  35 2.7339438e+000 1.90e-016 3.96e+000  -5.1 9.11e-011  10.6 1.00e+000 1.00e+000h  1
  36 2.7339438e+000 2.43e-016 3.96e+000  -5.1 2.73e-010  10.2 1.00e+000 1.00e+000h  1
  37 2.7339438e+000 2.60e-016 3.96e+000  -5.1 8.20e-010   9.7 1.00e+000 1.00e+000h  1
  38 2.7339438e+000 2.26e-016 3.96e+000  -5.1 2.46e-009   9.2 1.00e+000 1.00e+000h  1
  39 2.7339437e+000 1.69e-016 3.96e+000  -5.1 7.38e-009   8.7 1.00e+000 1.00e+000h  1
iter    objective    inf_pr   inf_du lg(mu)  ||d||  lg(rg) alpha_du alpha_pr  ls
  40 2.7339435e+000 1.69e-015 3.96e+000  -5.1 2.21e-008   8.3 1.00e+000 1.00e+000f  1
  41 2.7339428e+000 2.50e-014 3.96e+000  -5.1 6.64e-008   7.8 1.00e+000 1.00e+000f  1
  42 2.7339409e+000 2.55e-013 3.96e+000  -5.1 1.99e-007   7.3 1.00e+000 1.00e+000f  1
  43 2.7339349e+000 2.38e-012 3.96e+000  -5.1 5.98e-007   6.8 1.00e+000 1.00e+000f  1
  44 2.7339170e+000 2.17e-011 3.96e+000  -5.1 1.79e-006   6.3 1.00e+000 1.00e+000f  1
  45 2.7338632e+000 1.95e-010 3.96e+000  -7.0 5.38e-006   5.9 1.00e+000 1.00e+000f  1
  46 2.7337019e+000 1.72e-009 3.96e+000  -8.9 1.61e-005   5.4 1.00e+000 1.00e+000f  1
  47 2.7332182e+000 1.47e-008 3.96e+000 -10.7 4.84e-005   4.9 1.00e+000 1.00e+000f  1
  48 2.7317694e+000 1.13e-007 3.95e+000 -11.0 1.45e-004   4.4 1.00e+000 1.00e+000f  1
  49 2.7274375e+000 6.67e-007 3.94e+000 -11.0 4.33e-004   4.0 1.00e+000 1.00e+000f  1
iter    objective    inf_pr   inf_du lg(mu)  ||d||  lg(rg) alpha_du alpha_pr  ls
  50 2.7145166e+000 2.82e-006 3.92e+000 -11.0 1.29e-003   3.5 1.00e+000 1.00e+000f  1
  51 2.6761017e+000 1.66e-005 3.88e+000 -11.0 3.84e-003   3.0 1.00e+000 1.00e+000f  1
  52 2.5631603e+000 4.21e-004 6.84e+000 -11.0 1.13e-002   2.5 1.00e+000 1.00e+000f  1
  53 2.2953395e+000 1.28e-003 6.96e+000 -11.0 2.68e-002   2.1 1.00e+000 1.00e+000f  1
  54 1.5594139e+000 1.90e-001 1.82e+001 -11.0 7.36e-002   1.6 1.00e+000 1.00e+000f  1
  55 1.9092802e+000 4.99e-002 6.62e+001 -11.0 3.50e-002   2.9 1.00e+000 1.00e+000h  1
  56 2.0136462e+000 1.63e-002 3.30e+002 -11.0 1.04e-002   4.2 1.00e+000 1.00e+000h  1
  57 2.0663355e+000 3.55e-003 4.86e+002 -11.0 5.27e-003   4.7 1.00e+000 1.00e+000h  1
  58 2.0775098e+000 1.21e-004 1.35e+002 -11.0 1.12e-003   5.1 1.00e+000 1.00e+000h  1
  59 2.0770693e+000 3.66e-007 7.11e+000 -11.0 7.18e-005   4.6 1.00e+000 1.00e+000h  1
iter    objective    inf_pr   inf_du lg(mu)  ||d||  lg(rg) alpha_du alpha_pr  ls
  60 2.0734792e+000 1.00e-005 4.83e+000 -11.0 3.59e-004   4.1 1.00e+000 1.00e+000f  1
  61 2.0635584e+000 3.01e-005 4.45e+000 -11.0 9.92e-004   3.7 1.00e+000 1.00e+000f  1
  62 2.0354563e+000 2.44e-005 4.20e+000 -11.0 2.81e-003   3.2 1.00e+000 1.00e+000f  1
  63 1.9531648e+000 8.09e-005 4.10e+000 -11.0 8.23e-003   2.7 1.00e+000 1.00e+000f  1
  64 1.9227599e+000 3.16e-005 4.04e+000 -11.0 3.04e-003   3.1 1.00e+000 1.00e+000f  1
  65 1.8347838e+000 5.60e-004 8.48e+000 -11.0 8.80e-003   2.6 1.00e+000 1.00e+000f  1
  66 1.5783658e+000 1.26e-002 1.17e+001 -11.0 2.56e-002   2.2 1.00e+000 1.00e+000f  1
  67 1.5157489e+000 7.02e-003 1.52e+001 -11.0 7.29e-003   2.6 1.00e+000 1.00e+000h  1
  68 1.5144524e+000 6.83e-004 1.41e+001 -11.0 2.88e-003   3.0 1.00e+000 1.00e+000h  1
  69 1.4311425e+000 4.97e-003 1.38e+001 -11.0 8.33e-003   2.5 1.00e+000 1.00e+000f  1
iter    objective    inf_pr   inf_du lg(mu)  ||d||  lg(rg) alpha_du alpha_pr  ls
  70 1.3736251e+000 6.80e-003 1.23e+001 -11.0 5.75e-003   3.0 1.00e+000 1.00e+000h  1
  71 1.3497334e+000 1.07e-002 1.87e+001 -11.0 6.01e-003   2.5 1.00e+000 1.00e+000h  1
  72 1.2886048e+000 1.59e-002 1.93e+001 -11.0 6.58e-003   2.9 1.00e+000 1.00e+000h  1
  73 1.1547679e+000 2.80e-002 1.67e+001 -11.0 1.37e-002   2.4 1.00e+000 1.00e+000h  1
  74 9.9796165e-001 4.63e-002 1.22e+001 -11.0 3.24e-002   2.0 1.00e+000 1.00e+000h  1
  75 1.1148619e+000 2.03e-002 5.42e+001 -11.0 1.17e-002   3.3 1.00e+000 1.00e+000h  1
  76 1.1933241e+000 1.08e-002 8.41e+001 -11.0 7.85e-003   3.7 1.00e+000 1.00e+000h  1
  77 1.2518447e+000 3.09e-003 1.74e+002 -11.0 5.85e-003   4.1 1.00e+000 1.00e+000h  1
  78 1.2552389e+000 2.18e-003 7.93e+001 -11.0 2.19e-003   3.7 1.00e+000 5.00e-001h  2
  79 1.2684531e+000 9.05e-005 1.64e+001 -11.0 1.32e-003   4.1 1.00e+000 1.00e+000h  1
iter    objective    inf_pr   inf_du lg(mu)  ||d||  lg(rg) alpha_du alpha_pr  ls
  80 1.2649416e+000 1.36e-005 3.22e+000 -11.0 3.51e-004   3.6 1.00e+000 1.00e+000h  1
  81 1.2534195e+000 6.74e-005 1.59e+000 -11.0 1.15e-003   3.1 1.00e+000 1.00e+000f  1
  82 1.2236739e+000 8.12e-004 1.51e+001 -11.0 2.97e-003   2.7 1.00e+000 1.00e+000f  1
  83 1.1979418e+000 2.52e-003 1.18e+001 -11.0 2.57e-003   3.1 1.00e+000 1.00e+000h  1
  84 1.1887530e+000 2.58e-004 8.43e+000 -11.0 3.18e-003   2.6 1.00e+000 1.00e+000h  1
  85 1.1248820e+000 2.34e-004 1.59e+000 -11.0 8.35e-003   2.1 1.00e+000 1.00e+000f  1
  86 1.1040197e+000 1.97e-005 1.12e+000 -11.0 3.09e-003   2.6 1.00e+000 1.00e+000h  1
  87 1.0411342e+000 5.36e-005 1.10e+000 -11.0 8.44e-003   2.1 1.00e+000 1.00e+000f  1
  88 2.4223189e-001 8.26e-001 4.87e+002 -10.0 4.58e+000   2.5 1.00e+000 8.54e-002f  1
  89 4.1276750e-001 8.06e-001 3.88e+002 -10.1 1.06e+000   2.9 2.16e-001 2.44e-001h  1
iter    objective    inf_pr   inf_du lg(mu)  ||d||  lg(rg) alpha_du alpha_pr  ls
  90r4.1276750e-001 8.06e-001 9.99e+002  -0.1 0.00e+000   3.4 0.00e+000 1.38e-011R  2
  91r4.7526836e-001 8.06e-001 9.99e+002  -6.5 1.88e+003    -  2.27e-004 1.96e-004f  1
  92r6.3488649e-001 8.05e-001 8.61e+002  -6.5 2.79e+002   0.0 1.00e+000 5.78e-004f  1
  93r2.4691091e-001 8.19e-001 9.58e+002  -1.1 5.02e+001  -0.5 1.00e+000 1.21e-002f  1
  94r1.6447855e-001 1.43e+000 8.44e+002  -1.6 5.08e+000    -  7.29e-002 1.19e-001f  1
  95r5.5756021e-001 1.18e+000 6.73e+002  -0.5 1.07e+000   0.9 4.79e-001 2.01e-001f  1
  96r5.7581999e-001 1.18e+000 9.16e+002   0.8 1.38e+000   2.2 2.27e-001 2.61e-003f  1
  97r1.0595364e+000 1.62e+000 1.10e+003   1.3 6.82e+000    -  3.66e-002 8.00e-002f  1
  98r1.1477353e+000 1.51e+000 1.02e+003   0.3 7.66e-001   2.6 8.01e-002 6.97e-002f  1
  99r1.1486894e+000 1.51e+000 1.03e+003   0.3 7.01e-001   3.9 4.70e-002 9.16e-004h  1
iter    objective    inf_pr   inf_du lg(mu)  ||d||  lg(rg) alpha_du alpha_pr  ls
 100r1.3106736e+000 1.34e+000 5.83e+003   0.3 6.63e-001   4.4 1.99e-002 1.78e-001f  1
 101r1.4775078e+000 1.20e+000 3.18e+003   1.7 4.11e-001   3.9 2.48e-001 1.25e-001f  1
 102r2.4013282e+000 6.41e-001 5.05e+003   0.9 3.76e-001   3.4 3.52e-001 6.47e-001f  1
 103r2.4143184e+000 6.23e-001 4.98e+003   0.9 6.88e-002   5.6 1.67e-001 4.29e-002h  1
 104r2.6391171e+000 4.57e-001 6.28e+004   0.9 9.22e-002   5.2 6.54e-001 6.67e-001h  1
 105r2.8254822e+000 2.69e-001 2.54e+004   0.9 2.85e-002   5.6 8.75e-001 1.00e+000h  1
 106 -9.9759333e-008 3.36e-001 1.00e+001 -10.1 2.18e+009    -  3.29e-010 1.30e-010f  1
 107r-9.9759333e-008 3.36e-001 9.99e+002  -0.5 0.00e+000    -  0.00e+000 2.92e-010R  2
 108r2.4136868e-002 3.36e-001 9.99e+002  -2.9 3.03e+006    -  1.33e-006 7.89e-009f  1
 109r2.4176602e-002 3.29e-001 2.50e+002  -1.2 2.50e+004  -2.0 1.00e+000 1.98e-005f  1
iter    objective    inf_pr   inf_du lg(mu)  ||d||  lg(rg) alpha_du alpha_pr  ls
 110r7.0067127e+000 2.36e-001 1.44e+000  -1.1 7.72e-001    -  1.00e+000 9.04e-001f  1
 111 -9.9403183e-008 4.12e-001 1.00e+001 -10.1 2.11e+010    -  1.66e-011 3.32e-011f  1
 112 1.5240603e+000 7.19e-002 1.86e+002 -10.1 1.78e-001   2.9 1.00e+000 1.00e+000h  1
 113 1.9497441e+000 7.55e-004 1.12e+001 -10.1 4.26e-002   2.4 7.82e-001 1.00e+000h  1
 114 1.5588010e+000 1.13e-002 1.15e+001 -10.1 3.91e-002   1.9 1.00e+000 1.00e+000f  1
 115 1.3406056e+000 8.94e-003 7.03e+000 -10.1 5.78e-002   1.5 1.00e+000 3.78e-001f  1
 116 1.2349126e+000 2.83e-003 5.95e+000 -10.1 2.26e-002   1.9 1.00e+000 1.00e+000f  1
 117 8.8566593e-001 5.37e-003 5.06e+000 -10.1 4.98e-002   1.4 1.00e+000 1.00e+000f  1
 118 7.8290669e-001 1.17e-003 4.69e+000 -10.1 1.49e-002   1.8 1.00e+000 1.00e+000h  1
 119 3.9544253e-001 7.84e-001 8.27e+000  -8.0 5.78e-002   1.4 1.00e+000 1.00e+000f  1
iter    objective    inf_pr   inf_du lg(mu)  ||d||  lg(rg) alpha_du alpha_pr  ls
 120 -3.7413517e-010 7.89e-001 9.24e+000  -6.6 5.61e-001   1.8 6.88e-002 4.38e-001h  1
 121r-3.7413517e-010 7.89e-001 9.99e+002   0.0 0.00e+000   2.2 0.00e+000 2.70e-007R  5
 122r7.7070136e-001 7.96e-001 1.37e+003  -2.4 2.24e+004    -  6.98e-002 1.30e-005f  1
 123r7.6936835e-001 8.47e-001 7.21e+002   0.2 3.71e+000   2.0 1.00e+000 5.89e-002f  1
 124r5.8240233e-001 7.80e-001 1.23e+003   1.1 3.67e+000   1.5 1.92e-001 1.64e-001f  1
 125r6.3646429e-001 2.49e-001 8.08e+002   0.5 1.50e+000   1.9 2.34e-001 2.56e-001f  1
 126r1.2842797e+000 7.80e-001 1.01e+003   0.5 6.96e-001   3.3 2.68e-002 6.12e-001f  1
 127r1.3668398e+000 7.78e-001 1.04e+003   0.5 8.75e-001   3.7 2.22e-001 1.44e-001f  1
 128r1.3637229e+000 9.49e-002 9.84e+002   1.6 4.22e+000   3.2 4.98e-002 1.37e-001f  1
 129r1.5588652e+000 7.09e-002 6.44e+002   0.7 8.43e-001   2.7 1.00e+000 3.57e-001f  1
iter    objective    inf_pr   inf_du lg(mu)  ||d||  lg(rg) alpha_du alpha_pr  ls
 130r2.0465847e+000 1.63e-002 4.31e+002   0.7 3.16e-001   3.2 5.11e-001 8.68e-001f  1
 131 1.3468058e+000 1.95e-001 2.20e-002  -6.6 2.80e-001    -  9.94e-001 4.60e-001f  2
 132 1.2025501e+000 8.50e-002 9.94e+000  -6.6 5.13e-002   1.7 1.00e+000 1.00e+000h  1
 133 1.5018860e+000 4.68e-003 6.15e+000  -6.6 3.12e-002   2.2 8.01e-001 1.00e+000h  1
 134 1.1138747e+000 6.99e-003 2.60e+001  -6.6 8.28e-002   1.7 1.00e+000 5.00e-001f  2
 135 9.7560117e-001 1.70e-002 2.00e+001  -6.6 1.38e-002   2.1 1.00e+000 1.00e+000h  1
 136 1.0784739e+000 8.87e-004 7.79e+000  -6.6 1.03e-002   2.5 1.00e+000 1.00e+000h  1
 137 9.8797035e-001 2.50e-004 2.05e+000  -6.6 9.05e-003   2.0 1.00e+000 1.00e+000f  1
 138 9.4320105e-001 9.95e-004 2.13e+001  -6.6 4.48e-003   2.5 1.00e+000 1.00e+000h  1
 139 5.2741893e-001 7.08e-002 4.44e+001  -7.4 4.36e-002   2.0 1.00e+000 1.00e+000f  1
iter    objective    inf_pr   inf_du lg(mu)  ||d||  lg(rg) alpha_du alpha_pr  ls
 140 9.4254738e-001 5.50e-003 2.38e+001  -7.1 4.15e-002   2.4 1.00e+000 1.00e+000h  1
 141 8.6623961e-001 3.47e-004 4.53e+000  -7.2 1.62e-002   1.9 1.00e+000 1.00e+000h  1
 142 8.5191037e-001 1.94e-004 2.00e+001  -7.2 5.29e-003   3.3 1.00e+000 1.00e+000h  1
 143 8.3230906e-001 2.05e-004 6.55e+000  -8.9 2.20e-003   2.8 1.00e+000 1.00e+000h  1
 144 7.7283317e-001 1.56e-004 9.07e+000 -10.4 7.19e-003   2.3 1.00e+000 1.00e+000f  1
 145 6.0463900e-001 4.13e-003 9.11e+000 -11.0 1.93e-002   1.8 1.00e+000 1.00e+000f  1
 146 6.0462910e-003 7.19e-002 1.78e+001  -9.0 3.04e-001   1.4 1.00e+000 7.09e-001f  1
 147 1.0122734e-001 3.89e-002 2.40e+001  -9.1 1.99e-001   1.8 5.98e-001 1.00e+000h  1
 148 1.8737570e-001 3.35e-002 3.68e+001  -8.2 1.81e-002   2.2 1.00e+000 1.00e+000h  1
 149 9.3459889e-002 4.27e-002 2.13e+001  -9.2 2.94e-002   1.7 1.00e+000 1.00e+000h  1
iter    objective    inf_pr   inf_du lg(mu)  ||d||  lg(rg) alpha_du alpha_pr  ls
 150 3.0034859e-001 5.16e-003 2.93e+001  -9.0 2.07e-002   2.2 1.00e+000 1.00e+000h  1
 151 3.0351351e-001 4.94e-003 2.45e+001 -10.6 4.34e-003   2.6 1.00e+000 1.00e+000h  1
 152 3.3949426e-001 2.07e-005 3.77e+000 -11.0 3.60e-003   3.0 1.00e+000 1.00e+000h  1
 153 3.0524763e-001 2.88e-003 2.00e+001 -11.0 3.54e-003   2.5 1.00e+000 1.00e+000f  1
 154 1.9450413e-001 1.88e-002 1.98e+001 -11.0 1.11e-002   2.1 1.00e+000 1.00e+000f  1
 155 1.9449423e-003 4.07e-002 7.69e+000  -9.0 4.66e-002   1.6 1.00e+000 4.13e-001f  1
 156 1.2524051e-001 2.12e-002 2.56e+001  -9.2 1.40e-002   2.0 1.00e+000 1.00e+000h  1
 157 2.2562694e-001 5.06e-003 1.07e+001 -10.1 1.00e-002   2.4 1.00e+000 1.00e+000h  1
 158 1.7839219e-001 8.33e-003 9.74e+000 -11.0 1.88e-002   2.0 1.00e+000 1.00e+000h  1
 159 2.3233541e-001 3.22e-003 7.02e+001 -11.0 5.39e-003   3.3 1.00e+000 1.00e+000h  1
iter    objective    inf_pr   inf_du lg(mu)  ||d||  lg(rg) alpha_du alpha_pr  ls
 160 2.4465041e-001 2.02e-004 9.92e+000 -11.0 2.55e-003   2.8 1.00e+000 1.00e+000h  1
 161 2.4066905e-001 8.10e-005 1.99e+001 -11.0 1.00e-003   3.2 1.00e+000 1.00e+000h  1
 162 2.3410766e-001 1.46e-004 2.23e+000 -11.0 1.02e-003   2.8 1.00e+000 1.00e+000h  1
 163 2.2439093e-001 2.47e-005 5.59e-001 -11.0 2.66e-003   2.3 1.00e+000 1.00e+000h  1
 164 1.8960917e-001 1.83e-003 6.51e+000 -11.0 9.21e-003   1.8 1.00e+000 1.00e+000f  1
 165 7.3944445e-002 2.30e-002 1.48e+001 -11.0 5.21e-002   1.3 1.00e+000 1.00e+000f  1
 166 2.3727320e-001 3.40e-003 1.82e+001 -10.7 1.63e-002   2.7 1.00e+000 1.00e+000h  1
 167 2.2680875e-001 2.23e-003 7.54e+000 -10.8 9.83e-003   2.2 1.00e+000 1.00e+000h  1
 168 2.1618872e-001 8.60e-004 6.70e+000 -10.8 2.61e-003   2.6 1.00e+000 1.00e+000h  1
 169 1.6476530e-001 5.68e-003 1.06e+001 -11.0 8.50e-003   2.1 1.00e+000 1.00e+000f  1
iter    objective    inf_pr   inf_du lg(mu)  ||d||  lg(rg) alpha_du alpha_pr  ls
 170 1.2520341e-001 4.67e-003 9.88e+000 -11.0 1.89e-002   1.7 1.00e+000 1.00e+000h  1
 171 1.4551467e-001 1.13e-003 9.16e+000 -11.0 8.76e-003   2.1 1.00e+000 1.00e+000h  1
 172 1.4630252e-001 2.46e-004 8.51e+000 -11.0 2.21e-003   2.5 1.00e+000 1.00e+000h  1
 173 1.3418298e-001 4.83e-004 1.33e+001 -11.0 4.31e-003   2.0 1.00e+000 1.00e+000h  1
 174 1.1925957e-001 1.70e-003 1.50e+001 -11.0 4.16e-003   2.5 1.00e+000 1.00e+000h  1
 175 1.0031109e-001 2.88e-003 1.21e+001 -11.0 9.36e-003   2.0 1.00e+000 1.00e+000h  1
 176 1.0030119e-003 3.55e-002 2.09e+001  -9.0 4.06e-001   1.5 1.00e+000 1.75e-001f  1
 177 1.6019992e-001 5.38e-003 1.22e+001  -8.7 1.78e-002   1.9 1.00e+000 1.00e+000h  1
 178 7.7571009e-002 1.45e-002 1.55e+001  -8.8 4.47e-002   1.5 1.00e+000 1.00e+000h  1
 179 6.2880749e-002 1.06e-002 1.39e+001  -8.8 2.90e-002   1.9 1.00e+000 1.00e+000h  1
iter    objective    inf_pr   inf_du lg(mu)  ||d||  lg(rg) alpha_du alpha_pr  ls
 180 6.2870849e-004 2.34e-002 1.31e+001  -6.8 5.19e-002   1.4 1.00e+000 7.67e-001h  1
 181 1.3772882e-001 8.29e-003 2.27e+001  -6.5 1.37e-002   2.7 1.00e+000 1.00e+000h  1
 182 2.0711314e-001 2.54e-004 2.54e+001  -6.6 6.94e-003   3.2 7.18e-001 1.00e+000h  1
 183 1.9701861e-001 4.40e-005 1.92e+000  -8.2 2.48e-003   2.7 1.00e+000 1.00e+000h  1
 184 1.6348019e-001 7.00e-005 5.55e+000  -9.9 7.33e-003   2.2 1.00e+000 1.00e+000f  1
 185 1.2320026e-001 3.05e-003 1.41e+001 -10.0 1.64e-002   1.7 1.00e+000 1.00e+000f  1
 186 9.9111230e-002 3.31e-003 1.33e+001 -10.0 8.83e-003   2.2 1.00e+000 1.00e+000h  1
 187 9.9101330e-004 1.98e-002 2.46e+001  -8.0 7.45e-002   1.7 1.00e+000 6.76e-001f  1
 188 7.5737502e-002 1.03e-002 1.47e+001  -8.1 1.80e-002   2.1 1.00e+000 1.00e+000h  1
 189 1.5272076e-001 8.03e-004 1.44e+001  -8.8 7.70e-003   2.5 1.00e+000 1.00e+000h  1
iter    objective    inf_pr   inf_du lg(mu)  ||d||  lg(rg) alpha_du alpha_pr  ls
 190 1.5436300e-001 4.58e-005 3.60e+000  -8.9 1.18e-003   3.0 1.00e+000 1.00e+000h  1
 191 1.4268810e-001 1.97e-006 9.97e-001 -10.5 3.35e-003   2.5 1.00e+000 1.00e+000f  1
 192 1.3723602e-001 7.53e-005 1.27e+001 -11.0 1.57e-003   2.9 1.00e+000 1.00e+000h  1
 193 1.2915208e-001 2.76e-005 7.27e-001 -11.0 2.74e-003   2.4 1.00e+000 1.00e+000h  1
 194 1.1145941e-001 1.47e-004 2.42e+000 -11.0 5.10e-003   1.9 1.00e+000 1.00e+000f  1
 195 6.8110974e-002 7.09e-004 5.51e+000 -11.0 1.41e-002   1.5 1.00e+000 1.00e+000f  1
 196 6.3376861e-002 1.95e-004 7.19e+000 -11.0 5.52e-003   1.9 1.00e+000 1.00e+000h  1
 197 4.0572853e-002 2.41e-004 5.42e+000 -11.0 1.18e-002   1.4 1.00e+000 1.00e+000h  1
 198 4.0562953e-004 5.29e-003 8.68e+000  -9.0 5.65e-002   0.9 1.00e+000 8.34e-001h  1
 199 3.9572953e-006 5.17e-003 8.47e+000  -7.0 2.63e-002   1.4 1.00e+000 2.39e-002h  1
iter    objective    inf_pr   inf_du lg(mu)  ||d||  lg(rg) alpha_du alpha_pr  ls
 200 1.1993813e-005 5.60e-003 4.64e+000  -5.6 2.62e-002   0.9 1.00e+000 1.00e+000h  1
 201 6.4183475e-006 4.03e-003 2.39e+000  -5.3 2.56e-002   0.4 1.00e+000 5.00e-001h  2
 202 3.0351731e-006 5.45e-003 8.02e-001  -5.6 3.37e-002  -0.1 1.00e+000 1.00e+000h  1
 203 2.0807668e-006 3.22e-003 7.57e-001  -5.7 2.84e-002   0.4 1.00e+000 1.00e+000h  1
 204 2.0372964e-007 2.51e-003 5.66e-001  -6.5 2.64e-002  -0.1 1.00e+000 1.00e+000h  1
 205 1.7268859e-007 1.81e-003 6.52e-001  -6.6 1.45e-002   0.3 1.00e+000 1.00e+000h  1
 206 -5.8511797e-008 1.79e-003 4.36e-001  -7.4 1.65e-002  -0.2 1.00e+000 1.00e+000h  1
 207 -6.1676724e-008 1.63e-003 2.30e-001  -7.4 2.99e-002  -0.6 1.00e+000 5.00e-001h  2
 208 -9.7691892e-008 7.13e-004 2.18e-002  -8.7 2.23e-002  -1.1 1.00e+000 1.00e+000h  1
 209 -9.9824180e-008 8.43e-004 1.81e-001 -10.0 1.29e-002  -0.7 1.00e+000 1.00e+000h  1
iter    objective    inf_pr   inf_du lg(mu)  ||d||  lg(rg) alpha_du alpha_pr  ls
 210 -9.9922490e-008 1.23e-003 2.80e-002 -10.1 1.15e-002  -1.2 1.00e+000 1.00e+000h  1
 211 -9.9973452e-008 7.25e-003 5.59e+000 -11.0 4.62e-003   2.0 1.00e+000 1.00e+000h  1
 212 -9.9992529e-008 2.59e-003 1.11e+000 -11.0 4.00e-003   1.5 1.00e+000 1.00e+000h  1
 213 -9.9989128e-008 2.42e-003 2.38e+000 -11.0 2.64e-003   1.9 1.00e+000 1.00e+000h  1
 214 -9.9989625e-008 1.61e-003 8.88e-001 -11.0 1.78e-003   1.4 1.00e+000 1.00e+000h  1
 215 -9.9990006e-008 1.46e-003 1.58e-001 -11.0 1.39e-003   1.0 1.00e+000 1.00e+000h  1
 216 -9.9989989e-008 9.64e-004 8.03e-002 -11.0 1.23e-003   0.5 1.00e+000 5.00e-001h  2
 217 -9.9989971e-008 7.82e-004 6.19e-002 -11.0 2.19e-003   0.0 1.00e+000 5.00e-001h  2
 218 -9.9989979e-008 6.56e-004 4.70e-002 -11.0 4.78e-003  -0.5 1.00e+000 2.50e-001h  3
 219 -9.9989963e-008 4.60e-004 2.17e-002 -11.0 5.16e-003  -1.0 1.00e+000 5.00e-001h  2
iter    objective    inf_pr   inf_du lg(mu)  ||d||  lg(rg) alpha_du alpha_pr  ls
 220 -9.9989954e-008 3.63e-004 2.60e-002 -11.0 1.09e-002  -1.4 1.00e+000 2.50e-001h  3
 221 -9.9989953e-008 3.40e-004 1.25e-002 -11.0 2.75e-002  -1.9 1.00e+000 6.25e-002h  5
 222 -9.9989951e-008 2.99e-004 1.09e-002 -11.0 2.49e-002  -1.5 1.00e+000 1.25e-001h  4
 223 -9.9989950e-008 2.95e-004 6.10e-002 -11.0 2.96e-002  -2.0 1.00e+000 1.56e-002h  7
 224 -9.9989944e-008 2.86e-004 1.83e-001 -11.0 2.57e-002  -1.5 1.00e+000 3.12e-002h  6
 225 -9.9989943e-008 2.81e-004 4.64e-002 -11.0 2.98e-002  -2.0 1.00e+000 1.56e-002h  7
 226 -9.9989937e-008 2.72e-004 1.71e-001 -11.0 2.74e-002  -1.6 1.00e+000 3.12e-002h  6
 227 -9.9989907e-008 3.59e-005 7.37e-003 -11.0 2.91e-002  -2.1 1.00e+000 1.00e+000w  1

Number of Iterations....: 227

                                   (scaled)                 (unscaled)
Objective...............: -9.9989907464959060e-008  -9.9989907464959060e-008
Dual infeasibility......:  7.3732891630162896e-003   7.3732891630162896e-003
Constraint violation....:  3.5886008571306840e-005   3.5886008571306840e-005
Complementarity.........:  1.0002390211019294e-011   1.0002390211019294e-011
Overall NLP error.......:  7.3732891630162896e-003   7.3732891630162896e-003


Number of objective function evaluations             = 311
Number of objective gradient evaluations             = 204
Number of equality constraint evaluations            = 311
Number of inequality constraint evaluations          = 311
Number of equality constraint Jacobian evaluations   = 231
Number of inequality constraint Jacobian evaluations = 231
Number of Lagrangian Hessian evaluations             = 227
Total CPU secs in IPOPT (w/o function evaluations)   =      1.765
Total CPU secs in NLP function evaluations           =      8.675

EXIT: Optimal Solution Found.
